sat
(:max-memory        20.21
 :memory            17.87
 :num-allocs        1074755502
 :rlimit-count      11597308
 :sls-constraints   11347
 :sls-ddfw-flips    5737386.00
 :sls-ddfw-reinits  34
 :sls-ddfw-restarts 62
 :sls-ddfw-shifts   1830404.00
 :sls-euf-conflict  11347
 :time              8.56
 :total-time        8.55)
